(declare-fun var0 () String)
(declare-fun var1 () String)
(declare-fun var2 () String)
(declare-fun var3 () String)
(declare-fun var4 () String)
(declare-fun var5 () String)
(declare-fun var6 () String)
(declare-fun var7 () String)
(declare-fun var8 () String)
(declare-fun var9 () String)
(declare-fun var10 () String)
(declare-fun var11 () String)
(declare-fun var12 () String)
(declare-fun var13 () String)
(declare-fun var14 () String)
(declare-fun var15 () String)
(declare-fun var16 () String)
(declare-fun var17 () String)
(declare-fun var18 () String)
(declare-fun var19 () String)
(declare-fun var20 () String)
(declare-fun var21 () String)
(declare-fun var22 () String)
(declare-fun var23 () String)
(declare-fun var24 () String)
(declare-fun var25 () String)
(declare-fun var26 () String)
(declare-fun var27 () String)
(declare-fun var28 () String)
(declare-fun var29 () String)
(declare-fun var30 () String)
(declare-fun var31 () String)
(declare-fun var32 () String)
(declare-fun var33 () String)
(declare-fun var34 () String)
(declare-fun var35 () String)
(declare-fun var36 () String)
(declare-fun var37 () String)
(declare-fun var38 () String)
(declare-fun var39 () String)
(declare-fun var40 () String)
(declare-fun var41 () String)
(declare-fun var42 () String)
(declare-fun var43 () String)
(declare-fun var44 () String)
(declare-fun var45 () String)
(declare-fun var46 () String)
(declare-fun var47 () String)
(declare-fun var48 () String)
(declare-fun var49 () String)
(declare-fun var50 () String)
(declare-fun var51 () String)
(declare-fun var52 () String)
(declare-fun var53 () String)
(declare-fun var54 () String)
(declare-fun var55 () String)
(declare-fun var56 () String)
(declare-fun var57 () String)
(declare-fun var58 () String)
(declare-fun var59 () String)
(declare-fun var60 () String)
(assert (= var0 (str.++ var1 var2)))
(assert (= var2 (str.++ var3 var4)))
(assert (= var4 (str.++ var5 var6)))
(assert (= var6 (str.++ var7 var8)))
(assert (= var8 (str.++ var9 var10)))
(assert (= var10 (str.++ var11 var12)))
(assert (= var12 (str.++ var13 var14)))
(assert (= var14 (str.++ var15 var16)))
(assert (= var16 (str.++ var17 var18)))
(assert (= var18 (str.++ var19 var20)))
(assert (= var20 (str.++ var21 var22)))
(assert (= var22 (str.++ var23 var24)))
(assert (= var24 (str.++ var25 var26)))
(assert (= var26 (str.++ var27 var28)))
(assert (= var28 (str.++ var29 var30)))
(assert (= var30 (str.++ var31 var32)))
(assert (= var32 (str.++ var33 var34)))
(assert (= var34 (str.++ var35 var36)))
(assert (= var36 (str.++ var37 var38)))
(assert (= var38 (str.++ var39 var40)))
(assert (= var40 (str.++ var41 var42)))
(assert (= var42 (str.++ var43 var44)))
(assert (= var44 (str.++ var45 var46)))
(assert (= var46 (str.++ var47 var48)))
(assert (= var48 (str.++ var49 var50)))
(assert (= var50 (str.++ var51 var52)))
(assert (= var52 (str.++ var53 var54)))
(assert (= var54 (str.++ var55 var56)))
(assert (= var56 (str.++ var57 var58)))
(assert (= var58 (str.++ var59 var60)))
(assert (= var0 "solution"))
(assert (= "]" (str.at var58 751)))
(assert (= "L" (str.at var38 941)))
(assert (= "5" (str.at var19 16)))
(assert (= "H" (str.at var7 987)))
(assert (= "N" (str.at var37 984)))
(assert (= "D" (str.at var33 739)))
(assert (= "A" (str.at var34 721)))
(assert (= "A" (str.at var3 783)))
(assert (= "z" (str.at var1 694)))
(assert (= "q" (str.at var52 797)))
(assert (= "C" (str.at var17 168)))
(assert (= "%" (str.at var29 140)))
(assert (= "1" (str.at var16 696)))
(assert (= "[" (str.at var8 202)))
(assert (= "2" (str.at var25 561)))
(assert (= "q" (str.at var40 399)))
(assert (= "x" (str.at var51 86)))
(assert (= "#" (str.at var8 483)))
(assert (= "'" (str.at var19 200)))
(assert (= "@" (str.at var10 922)))
(assert (= "w" (str.at var51 632)))
(assert (= "s" (str.at var18 823)))
(assert (= "q" (str.at var13 251)))
(assert (= "o" (str.at var48 665)))
(assert (= "U" (str.at var51 749)))
(assert (= "r" (str.at var44 164)))
(assert (= "K" (str.at var36 182)))
(assert (= "h" (str.at var45 616)))
(assert (= "C" (str.at var12 539)))
(assert (= "U" (str.at var30 716)))
(assert (= "F" (str.at var1 853)))
(assert (= "h" (str.at var15 352)))
(assert (= "e" (str.at var29 993)))
(assert (= "?" (str.at var16 865)))
(assert (= "W" (str.at var44 550)))
(assert (= "n" (str.at var7 451)))
(assert (= "z" (str.at var36 544)))
(assert (= "s" (str.at var49 221)))
(assert (= "e" (str.at var9 694)))
(assert (= "V" (str.at var4 101)))
(assert (= "K" (str.at var5 541)))
(assert (= "t" (str.at var36 853)))
(assert (= "c" (str.at var19 995)))
(assert (= "k" (str.at var5 104)))
(assert (= ">" (str.at var18 498)))
(assert (= "`" (str.at var5 195)))
(assert (= ">" (str.at var39 421)))
(assert (= "V" (str.at var4 338)))
(assert (= "o" (str.at var0 605)))
(assert (= "~" (str.at var54 793)))
(assert (= "+" (str.at var12 645)))
(assert (= "k" (str.at var52 900)))
(assert (= "R" (str.at var32 691)))
(assert (= "U" (str.at var36 417)))
(assert (= "0" (str.at var2 976)))
(assert (= "x" (str.at var1 574)))
(assert (= "5" (str.at var33 885)))
(assert (= "1" (str.at var12 666)))
(assert (= "i" (str.at var60 980)))
(assert (= "G" (str.at var8 937)))
(assert (= "y" (str.at var47 30)))
(assert (= "j" (str.at var20 353)))
(assert (= ";" (str.at var24 348)))
(assert (= "~" (str.at var46 914)))
(assert (= """" (str.at var12 142)))
(assert (= "X" (str.at var29 576)))
(assert (= "~" (str.at var40 351)))
(assert (= "8" (str.at var16 272)))
(assert (= "o" (str.at var49 5)))
(assert (= "l" (str.at var52 370)))
(assert (= "4" (str.at var12 76)))
(assert (= "s" (str.at var42 814)))
(assert (= "B" (str.at var58 226)))
(assert (= "j" (str.at var13 227)))
(assert (= "U" (str.at var27 907)))
(assert (= "|" (str.at var52 670)))
(assert (= "p" (str.at var10 420)))
(assert (= "3" (str.at var26 411)))
(assert (= "x" (str.at var7 691)))
(assert (= "`" (str.at var58 967)))
(assert (= "|" (str.at var30 475)))
(assert (= "R" (str.at var12 428)))
(assert (= "g" (str.at var10 257)))
(assert (= "x" (str.at var19 357)))
(assert (= "`" (str.at var34 492)))
(assert (= "1" (str.at var53 396)))
(assert (= "A" (str.at var31 767)))
(assert (= "'" (str.at var21 953)))
(assert (= "v" (str.at var22 658)))
(assert (= "Z" (str.at var21 463)))
(assert (= "|" (str.at var23 504)))
(assert (= "~" (str.at var39 907)))
(assert (= "L" (str.at var3 325)))
(assert (= "T" (str.at var56 33)))
(assert (= "W" (str.at var19 705)))
(assert (= "b" (str.at var23 950)))
(assert (= "q" (str.at var51 90)))
(assert (= "1" (str.at var27 986)))
(assert (= ")" (str.at var0 245)))
(assert (= ")" (str.at var33 860)))
(assert (= "/" (str.at var3 836)))
(assert (= "a" (str.at var2 639)))
(assert (= "v" (str.at var53 208)))
(assert (= "1" (str.at var48 105)))
(assert (= "z" (str.at var13 732)))
(assert (= "c" (str.at var49 798)))
(assert (= "%" (str.at var42 813)))
(assert (= "L" (str.at var58 782)))
(assert (= "<" (str.at var5 314)))
(assert (= "^" (str.at var42 471)))
(assert (= "o" (str.at var46 869)))
(assert (= "k" (str.at var52 70)))
(assert (= "L" (str.at var21 627)))
(assert (= "}" (str.at var26 837)))
(assert (= "+" (str.at var12 526)))
(assert (= "8" (str.at var6 827)))
(assert (= "h" (str.at var35 72)))
(assert (= "w" (str.at var35 107)))
(assert (= "t" (str.at var28 701)))
(assert (= "`" (str.at var58 294)))
(assert (= "M" (str.at var25 437)))
(assert (= "6" (str.at var28 936)))
(assert (= "[" (str.at var47 293)))
(assert (= "W" (str.at var58 134)))
(assert (= "<" (str.at var36 695)))
(assert (= "R" (str.at var5 718)))
(assert (= "m" (str.at var4 141)))
(assert (= "&" (str.at var24 611)))
(assert (= "U" (str.at var49 578)))
(assert (= "#" (str.at var41 653)))
(assert (= "F" (str.at var60 483)))
(assert (= "r" (str.at var56 699)))
(assert (= ":" (str.at var55 213)))
(assert (= "f" (str.at var17 32)))
(assert (= "T" (str.at var2 260)))
(assert (= "C" (str.at var9 749)))
(assert (= "{" (str.at var33 416)))
(assert (= "L" (str.at var28 803)))
(assert (= "N" (str.at var27 888)))
(assert (= ";" (str.at var18 824)))
(assert (= "'" (str.at var2 568)))
(assert (= "[" (str.at var58 133)))
(assert (= "P" (str.at var22 476)))
(assert (= "h" (str.at var59 452)))
(assert (= "0" (str.at var8 632)))
(assert (= "#" (str.at var13 796)))
(assert (= "x" (str.at var15 495)))
(assert (= "\\" (str.at var12 492)))
(assert (= "6" (str.at var0 668)))
(assert (= "S" (str.at var49 47)))
(assert (= "^" (str.at var41 94)))
(assert (= "a" (str.at var24 579)))
(assert (= "`" (str.at var6 455)))
(assert (= "R" (str.at var55 189)))
(assert (= "~" (str.at var39 1)))
(assert (= "5" (str.at var26 357)))
(assert (= "U" (str.at var49 665)))
(assert (= "m" (str.at var16 840)))
(assert (= "1" (str.at var51 460)))
(assert (= "n" (str.at var49 393)))
(assert (= "6" (str.at var11 310)))
(assert (= "d" (str.at var43 222)))
(assert (= "g" (str.at var47 627)))
(assert (= ")" (str.at var5 731)))
(assert (= "b" (str.at var23 410)))
(assert (= "Q" (str.at var46 216)))
(assert (= "A" (str.at var56 612)))
(assert (= "6" (str.at var13 872)))
(assert (= "1" (str.at var46 367)))
(assert (= "8" (str.at var19 994)))
(assert (= "E" (str.at var11 895)))
(assert (= "i" (str.at var36 714)))
(assert (= "y" (str.at var11 683)))
(assert (= "|" (str.at var26 900)))
(assert (= "$" (str.at var41 560)))
(assert (= "#" (str.at var48 290)))
(assert (= "B" (str.at var28 35)))
(assert (= "V" (str.at var4 63)))
(assert (= "C" (str.at var52 648)))
(assert (= "<" (str.at var56 573)))
(assert (= "p" (str.at var27 526)))
(assert (= "b" (str.at var18 364)))
(assert (= "W" (str.at var13 885)))
(assert (= "y" (str.at var4 491)))
(assert (= "L" (str.at var46 576)))
(assert (= "+" (str.at var54 398)))
(assert (= "Z" (str.at var54 350)))
(assert (= "X" (str.at var56 455)))
(assert (= "(" (str.at var18 981)))
(assert (= "8" (str.at var8 11)))
(assert (= "&" (str.at var38 363)))
(assert (= "'" (str.at var42 946)))
(assert (= "7" (str.at var38 369)))
(assert (= "j" (str.at var14 545)))
(assert (= "E" (str.at var21 213)))
(assert (= "l" (str.at var22 0)))
(assert (= "Z" (str.at var50 262)))
(assert (= "+" (str.at var5 552)))
(assert (= "Y" (str.at var45 63)))
(assert (= "T" (str.at var35 303)))
(assert (= "R" (str.at var58 671)))
(assert (= "E" (str.at var18 248)))
(assert (= "~" (str.at var43 519)))
(assert (= "g" (str.at var21 5)))
(assert (= "2" (str.at var14 294)))
(assert (= "Z" (str.at var26 143)))
(assert (= "'" (str.at var7 394)))
(assert (= "Q" (str.at var25 349)))
(assert (= "\\" (str.at var47 889)))
(assert (= "H" (str.at var46 967)))
(assert (= "V" (str.at var30 75)))
(assert (= "!" (str.at var15 824)))
(assert (= "^" (str.at var44 76)))
(assert (= "j" (str.at var22 695)))
(assert (= "5" (str.at var21 368)))
(assert (= "D" (str.at var1 73)))
(assert (= "v" (str.at var30 370)))
(assert (= "6" (str.at var0 747)))
(assert (= "L" (str.at var19 496)))
(assert (= "4" (str.at var16 80)))
(assert (= "3" (str.at var6 778)))
(assert (= "K" (str.at var32 959)))
(assert (= "B" (str.at var35 598)))
(assert (= "\\" (str.at var6 234)))
(assert (= "," (str.at var42 479)))
(assert (= "]" (str.at var23 537)))
(assert (= "U" (str.at var22 477)))
(assert (= "O" (str.at var10 924)))
(assert (= "&" (str.at var37 176)))
(assert (= "'" (str.at var57 211)))
(assert (= "&" (str.at var57 26)))
(assert (= "6" (str.at var9 688)))
(assert (= "^" (str.at var39 408)))
(assert (= "P" (str.at var54 519)))
(assert (= "w" (str.at var26 496)))
(assert (= "D" (str.at var35 317)))
(assert (= "T" (str.at var28 758)))
(assert (= "R" (str.at var60 348)))
(assert (= "H" (str.at var20 97)))
(assert (= "_" (str.at var8 177)))
(assert (= "e" (str.at var53 844)))
(assert (= "g" (str.at var44 871)))
(assert (= ">" (str.at var31 342)))
(assert (= "S" (str.at var47 858)))
(assert (= "E" (str.at var28 55)))
(assert (= "j" (str.at var38 335)))
(assert (= "M" (str.at var58 18)))
(assert (= "5" (str.at var33 162)))
(assert (= "$" (str.at var3 211)))
(assert (= "V" (str.at var27 25)))
(assert (= "d" (str.at var50 793)))
(assert (= "<" (str.at var25 388)))
(assert (= "&" (str.at var15 580)))
(assert (= "R" (str.at var0 508)))
(assert (= "," (str.at var8 398)))
(assert (= "+" (str.at var32 771)))
(assert (= "+" (str.at var38 465)))
(assert (= "F" (str.at var58 559)))
(assert (= "-" (str.at var23 434)))
(assert (= "3" (str.at var20 324)))
(assert (= "x" (str.at var22 179)))
(assert (= "*" (str.at var18 611)))
(assert (= "H" (str.at var2 116)))
(assert (= "v" (str.at var49 473)))
(assert (= "s" (str.at var37 16)))
(assert (= "," (str.at var19 953)))
(assert (= "K" (str.at var47 19)))
(assert (= "=" (str.at var1 52)))
(assert (= "c" (str.at var36 121)))
(assert (= "c" (str.at var19 639)))
(assert (= "^" (str.at var35 41)))
(assert (= "3" (str.at var17 809)))
(assert (= "A" (str.at var7 635)))
(assert (= "N" (str.at var59 443)))
(assert (= "," (str.at var34 197)))
(assert (= "%" (str.at var51 824)))
(assert (= "!" (str.at var47 134)))
(assert (= "&" (str.at var55 855)))
(assert (= "n" (str.at var43 765)))
(assert (= "*" (str.at var34 64)))
(assert (= "5" (str.at var17 295)))
(assert (= "S" (str.at var30 550)))
(assert (= "l" (str.at var42 578)))
(assert (= "$" (str.at var5 968)))
(assert (= "f" (str.at var39 989)))
(assert (= "t" (str.at var31 356)))
(assert (= "M" (str.at var26 556)))
(assert (= "|" (str.at var6 301)))
(assert (= "~" (str.at var6 722)))
(assert (= "," (str.at var27 91)))
(assert (= "Q" (str.at var56 677)))
(assert (= "j" (str.at var39 733)))
(assert (= "." (str.at var3 397)))
(assert (= "9" (str.at var52 820)))
(assert (= ":" (str.at var59 818)))
(assert (= """" (str.at var56 327)))
(assert (= "<" (str.at var52 902)))
(assert (= "V" (str.at var57 461)))
(assert (= "K" (str.at var58 901)))
(assert (= "G" (str.at var14 90)))
(assert (= "4" (str.at var24 340)))
(assert (= "A" (str.at var50 912)))
(assert (= ";" (str.at var39 783)))
(assert (= "[" (str.at var8 351)))
(assert (= "@" (str.at var3 81)))
(assert (= "z" (str.at var52 550)))
(assert (= "G" (str.at var0 987)))
(assert (= "V" (str.at var37 113)))
(assert (= ":" (str.at var21 40)))
(assert (= "1" (str.at var18 946)))
(assert (= "i" (str.at var25 909)))
(assert (= "M" (str.at var28 215)))
(assert (= "f" (str.at var51 562)))
(assert (= "w" (str.at var0 604)))
(assert (= "m" (str.at var28 595)))
(assert (= "c" (str.at var45 493)))
(assert (= "L" (str.at var16 754)))
(assert (= "(" (str.at var3 410)))
(assert (= "p" (str.at var44 790)))
(assert (= "R" (str.at var36 53)))
(assert (= "=" (str.at var29 702)))
(assert (= "T" (str.at var28 645)))
(assert (= "*" (str.at var36 617)))
(assert (= "p" (str.at var19 48)))
(assert (= "H" (str.at var21 361)))
(assert (= "1" (str.at var33 500)))
(assert (= "[" (str.at var11 263)))
(assert (= "i" (str.at var5 860)))
(assert (= ">" (str.at var57 234)))
(assert (= "W" (str.at var48 282)))
(assert (= "w" (str.at var10 2)))
(assert (= "~" (str.at var1 322)))
(assert (= "o" (str.at var18 638)))
(assert (= ">" (str.at var33 323)))
(assert (= "?" (str.at var23 399)))
(assert (= "/" (str.at var20 8)))
(assert (= "^" (str.at var22 112)))
(assert (= "e" (str.at var8 644)))
(assert (= "g" (str.at var23 384)))
(assert (= "l" (str.at var18 231)))
(assert (= "l" (str.at var47 111)))
(assert (= "&" (str.at var40 892)))
(assert (= "b" (str.at var58 11)))
(assert (= "{" (str.at var39 808)))
(assert (= "b" (str.at var16 397)))
(assert (= "`" (str.at var12 619)))
(assert (= "^" (str.at var41 998)))
(assert (= "L" (str.at var7 382)))
(assert (= "W" (str.at var37 823)))
(assert (= "H" (str.at var18 582)))
(assert (= "6" (str.at var36 41)))
(assert (= "[" (str.at var7 509)))
(assert (= "e" (str.at var2 944)))
(assert (= "w" (str.at var6 206)))
(assert (= "@" (str.at var22 675)))
(assert (= "e" (str.at var52 895)))
(assert (= "s" (str.at var39 103)))
(assert (= "w" (str.at var18 148)))
(assert (= "4" (str.at var1 106)))
(assert (= "-" (str.at var30 425)))
(assert (= "j" (str.at var26 147)))
(assert (= "s" (str.at var39 222)))
(assert (= "k" (str.at var20 460)))
(assert (= """" (str.at var55 169)))
(assert (= "C" (str.at var32 119)))
(assert (= ">" (str.at var50 854)))
(assert (= "q" (str.at var35 172)))
(assert (= "K" (str.at var2 833)))
(assert (= "M" (str.at var36 207)))
(assert (= "X" (str.at var58 473)))
(assert (= "5" (str.at var2 166)))
(assert (= "s" (str.at var11 457)))
(assert (= "+" (str.at var0 991)))
(assert (= "L" (str.at var59 351)))
(assert (= "[" (str.at var55 108)))
(assert (= "t" (str.at var37 560)))
(assert (= """" (str.at var42 553)))
(assert (= "m" (str.at var48 159)))
(assert (= "^" (str.at var27 998)))
(assert (= "H" (str.at var37 110)))
(assert (= "O" (str.at var8 53)))
(assert (= "G" (str.at var21 121)))
(assert (= "N" (str.at var13 306)))
(assert (= "V" (str.at var17 362)))
(assert (= "b" (str.at var57 190)))
(assert (= "$" (str.at var11 724)))
(assert (= """" (str.at var36 162)))
(assert (= "u" (str.at var26 491)))
(assert (= "c" (str.at var52 721)))
(assert (= "$" (str.at var3 231)))
(assert (= "f" (str.at var18 70)))
(assert (= "p" (str.at var50 333)))
(assert (= "Y" (str.at var14 319)))
(assert (= "G" (str.at var26 320)))
(assert (= "_" (str.at var37 136)))
(assert (= "}" (str.at var24 568)))
(assert (= "L" (str.at var7 160)))
(assert (= "j" (str.at var44 428)))
(assert (= "u" (str.at var2 675)))
(assert (= "o" (str.at var6 15)))
(assert (= "z" (str.at var45 942)))
(assert (= "_" (str.at var21 875)))
(assert (= "'" (str.at var21 904)))
(assert (= "w" (str.at var18 766)))
(assert (= "," (str.at var14 503)))
(assert (= "q" (str.at var33 274)))
(assert (= "{" (str.at var9 620)))
(assert (= "3" (str.at var43 860)))
(assert (= "1" (str.at var46 953)))
(assert (= "E" (str.at var25 566)))
(assert (= "F" (str.at var18 233)))
(assert (= "c" (str.at var18 658)))
(assert (= "s" (str.at var25 261)))
(assert (= "d" (str.at var34 718)))
(assert (= "6" (str.at var53 521)))
(assert (= "/" (str.at var32 745)))
(assert (= "8" (str.at var44 740)))
(assert (= "P" (str.at var36 395)))
(assert (= "s" (str.at var21 137)))
(assert (= "1" (str.at var32 98)))
(assert (= """" (str.at var54 581)))
(assert (= "7" (str.at var25 425)))
(assert (= "W" (str.at var43 411)))
(assert (= "r" (str.at var54 181)))
(assert (= "H" (str.at var25 50)))
(assert (= "J" (str.at var36 806)))
(assert (= ">" (str.at var58 488)))
(assert (= "b" (str.at var31 860)))
(assert (= "{" (str.at var51 882)))
(assert (= "F" (str.at var17 986)))
(assert (= ">" (str.at var13 258)))
(assert (= "x" (str.at var15 748)))
(assert (= "m" (str.at var38 672)))
(assert (= "n" (str.at var25 164)))
(assert (= "k" (str.at var7 131)))
(assert (= ":" (str.at var4 906)))
(assert (= "+" (str.at var55 185)))
(assert (= "K" (str.at var47 251)))
(assert (= "i" (str.at var23 649)))
(assert (= "R" (str.at var58 366)))
(assert (= "S" (str.at var55 610)))
(assert (= "a" (str.at var0 404)))
(assert (= "W" (str.at var17 733)))
(assert (= "d" (str.at var44 556)))
(assert (= "Z" (str.at var3 532)))
(assert (= "w" (str.at var38 926)))
(assert (= "w" (str.at var1 497)))
(assert (= "n" (str.at var30 730)))
(assert (= "S" (str.at var45 122)))
(assert (= "Y" (str.at var58 622)))
(assert (= "t" (str.at var26 684)))
(assert (= "<" (str.at var47 234)))
(assert (= "V" (str.at var13 301)))
(assert (= "H" (str.at var1 692)))
(assert (= "r" (str.at var10 93)))
(assert (= "4" (str.at var18 225)))
(assert (= "D" (str.at var24 119)))
(assert (= """" (str.at var29 415)))
(assert (= "h" (str.at var43 239)))
(assert (= "9" (str.at var28 612)))
(assert (= "@" (str.at var54 879)))
(assert (= "A" (str.at var12 240)))
(assert (= "S" (str.at var1 141)))
(assert (= "d" (str.at var55 528)))
(assert (= "'" (str.at var54 522)))
(assert (= "?" (str.at var48 993)))
(assert (= "`" (str.at var15 545)))
(assert (= "'" (str.at var10 86)))
(assert (= "8" (str.at var25 336)))
(assert (= "I" (str.at var38 631)))
(assert (= "B" (str.at var49 530)))
(assert (= "E" (str.at var47 156)))
(assert (= "D" (str.at var2 280)))
(assert (= "1" (str.at var13 338)))
(assert (= "3" (str.at var12 690)))
(assert (= "O" (str.at var20 759)))
(assert (= ")" (str.at var55 696)))
(assert (= "m" (str.at var44 645)))
(assert (= """" (str.at var15 635)))
(assert (= "Q" (str.at var39 949)))
(assert (= "t" (str.at var25 572)))
(assert (= "W" (str.at var31 646)))
(assert (= "N" (str.at var37 431)))
(assert (= "G" (str.at var0 733)))
(assert (= "a" (str.at var36 427)))
(assert (= "f" (str.at var24 602)))
(assert (= "\\" (str.at var17 233)))
(assert (= "I" (str.at var44 124)))
(assert (= "V" (str.at var16 351)))
(assert (= "*" (str.at var9 429)))
(assert (= "G" (str.at var45 222)))
(assert (= "+" (str.at var34 263)))
(assert (= "X" (str.at var50 281)))
(assert (= "X" (str.at var0 970)))
(assert (= "y" (str.at var41 148)))
(assert (= "i" (str.at var1 417)))
(assert (= "6" (str.at var20 272)))
(assert (= "e" (str.at var36 571)))
(assert (= "m" (str.at var37 511)))
(assert (= "@" (str.at var55 492)))
(assert (= "K" (str.at var42 897)))
(assert (= "/" (str.at var12 147)))
(assert (= "{" (str.at var39 891)))
(assert (= "@" (str.at var1 665)))
(assert (= "m" (str.at var21 820)))
(assert (= "_" (str.at var42 336)))
(assert (= "e" (str.at var3 958)))
(assert (= "C" (str.at var50 76)))
(assert (= "`" (str.at var18 564)))
(assert (= "`" (str.at var41 81)))
(assert (= "?" (str.at var29 938)))
(assert (= "1" (str.at var51 402)))
(assert (= "{" (str.at var42 259)))
(assert (= "g" (str.at var13 875)))
(assert (= "y" (str.at var6 677)))
(assert (= "p" (str.at var32 681)))
(assert (= "x" (str.at var42 374)))
(assert (= "=" (str.at var48 854)))
(assert (= "O" (str.at var20 935)))
(assert (= "}" (str.at var29 918)))
(assert (= "z" (str.at var52 850)))
(assert (= "0" (str.at var21 506)))
(assert (= "j" (str.at var11 917)))
(assert (= "c" (str.at var3 999)))
(assert (= "c" (str.at var6 330)))
(assert (= "b" (str.at var31 697)))
(assert (= "N" (str.at var21 497)))
(assert (= "z" (str.at var40 658)))
(assert (= "I" (str.at var23 122)))
(assert (= "b" (str.at var45 459)))
(assert (= "W" (str.at var23 5)))
(assert (= "T" (str.at var7 117)))
(assert (= "l" (str.at var27 583)))
(assert (= "0" (str.at var4 841)))
(assert (= "1" (str.at var36 946)))
(assert (= "t" (str.at var45 868)))
(assert (= "#" (str.at var58 962)))
(assert (= "*" (str.at var40 112)))
(assert (= "e" (str.at var51 721)))
(assert (= "2" (str.at var34 433)))
(assert (= "X" (str.at var52 738)))
(assert (= "3" (str.at var22 943)))
(assert (= "}" (str.at var31 278)))
(assert (= "3" (str.at var47 284)))
(assert (= "=" (str.at var3 225)))
(assert (= "m" (str.at var49 240)))
(assert (= "h" (str.at var39 506)))
(assert (= "i" (str.at var37 950)))
(assert (= "[" (str.at var22 500)))
(assert (= ">" (str.at var46 10)))
(assert (= "Q" (str.at var45 84)))
(assert (= "J" (str.at var10 804)))
(assert (= ">" (str.at var0 413)))
(assert (= "G" (str.at var53 737)))
(assert (= "0" (str.at var50 984)))
(assert (= "U" (str.at var55 856)))
(assert (= "F" (str.at var32 383)))
(assert (= "t" (str.at var58 924)))
(assert (= "S" (str.at var17 585)))
(assert (= "." (str.at var29 749)))
(assert (= "-" (str.at var18 768)))
(assert (= "&" (str.at var38 833)))
(assert (= "]" (str.at var1 969)))
(assert (= "?" (str.at var60 234)))
(assert (= "0" (str.at var50 441)))
(assert (= "u" (str.at var22 594)))
(assert (= "z" (str.at var31 679)))
(assert (= "@" (str.at var0 576)))
(assert (= "W" (str.at var34 520)))
(assert (= "#" (str.at var49 185)))
(assert (= ">" (str.at var4 746)))
(assert (= "u" (str.at var45 550)))
(assert (= "[" (str.at var1 298)))
(assert (= "D" (str.at var33 656)))
(assert (= "O" (str.at var4 541)))
(assert (= "D" (str.at var55 98)))
(assert (= "H" (str.at var37 389)))
(assert (= "<" (str.at var55 904)))
(assert (= "X" (str.at var24 693)))
(assert (= "{" (str.at var13 617)))
(assert (= "Q" (str.at var51 678)))
(assert (= "w" (str.at var28 295)))
(assert (= "B" (str.at var22 614)))
(assert (= "J" (str.at var48 124)))
(assert (= "*" (str.at var23 750)))
(assert (= "s" (str.at var49 707)))
(assert (= "^" (str.at var46 405)))
(assert (= "l" (str.at var47 283)))
(assert (= "b" (str.at var10 447)))
(assert (= "." (str.at var28 969)))
(assert (= "(" (str.at var43 851)))
(assert (= "E" (str.at var49 285)))
(assert (= "5" (str.at var58 757)))
(assert (= "Y" (str.at var2 459)))
(assert (= "!" (str.at var55 117)))
(assert (= "X" (str.at var33 589)))
(assert (= "1" (str.at var32 612)))
(assert (= ">" (str.at var53 289)))
(assert (= "P" (str.at var4 536)))
(assert (= "K" (str.at var60 642)))
(assert (= "?" (str.at var0 763)))
(assert (= "-" (str.at var14 882)))
(assert (= "@" (str.at var5 823)))
(assert (= "!" (str.at var2 598)))
(assert (= "B" (str.at var44 348)))
(assert (= "6" (str.at var11 509)))
(assert (= "5" (str.at var14 439)))
(assert (= "#" (str.at var9 969)))
(assert (= "~" (str.at var22 417)))
(assert (= "?" (str.at var12 387)))
(assert (= "g" (str.at var34 300)))
(assert (= "D" (str.at var38 71)))
(assert (= "5" (str.at var34 841)))
(assert (= "u" (str.at var51 381)))
(assert (= "E" (str.at var14 306)))
(assert (= "~" (str.at var4 333)))
(assert (= "E" (str.at var49 322)))
(assert (= "/" (str.at var38 582)))
(assert (= "B" (str.at var58 926)))
(assert (= "T" (str.at var2 644)))
(assert (= "r" (str.at var37 87)))
(assert (= "'" (str.at var8 437)))
(assert (= "<" (str.at var9 732)))
(assert (= "." (str.at var41 600)))
(assert (= "$" (str.at var6 946)))
(assert (= "4" (str.at var11 434)))
(assert (= "|" (str.at var49 745)))
(assert (= "i" (str.at var33 920)))
(assert (= "\\" (str.at var49 859)))
(assert (= "q" (str.at var32 45)))
(assert (= "@" (str.at var59 163)))
(assert (= "0" (str.at var3 189)))
(assert (= "<" (str.at var54 93)))
(assert (= "w" (str.at var38 910)))
(assert (= "," (str.at var15 625)))
(assert (= "a" (str.at var37 369)))
(assert (= "k" (str.at var35 285)))
(assert (= ">" (str.at var18 524)))
(assert (= "q" (str.at var41 109)))
(assert (= "m" (str.at var58 747)))
(assert (= "%" (str.at var28 872)))
(assert (= "f" (str.at var5 215)))
(assert (= "o" (str.at var10 731)))
(assert (= "9" (str.at var46 193)))
(assert (= "6" (str.at var3 333)))
(assert (= "U" (str.at var1 406)))
(assert (= "2" (str.at var42 663)))
(assert (= "j" (str.at var39 470)))
(assert (= "c" (str.at var8 898)))
(assert (= "1" (str.at var8 247)))
(assert (= "Q" (str.at var50 259)))
(assert (= "D" (str.at var58 86)))
(assert (= "t" (str.at var29 138)))
(assert (= "5" (str.at var31 310)))
(assert (= "k" (str.at var8 914)))
(assert (= "G" (str.at var8 902)))
(assert (= "o" (str.at var52 467)))
(assert (= "u" (str.at var25 524)))
(assert (= "b" (str.at var21 227)))
(assert (= "|" (str.at var50 410)))
(assert (= "Q" (str.at var52 693)))
(assert (= "D" (str.at var50 151)))
(assert (= "," (str.at var21 392)))
(assert (= "V" (str.at var48 435)))
(assert (= "z" (str.at var30 604)))
(assert (= "q" (str.at var20 932)))
(assert (= "b" (str.at var19 988)))
(assert (= "8" (str.at var38 567)))
(assert (= "y" (str.at var29 982)))
(assert (= "_" (str.at var39 466)))
(assert (= ";" (str.at var13 610)))
(assert (= "H" (str.at var3 306)))
(assert (= "=" (str.at var53 862)))
(assert (= "." (str.at var47 64)))
(assert (= "a" (str.at var27 50)))
(assert (= "0" (str.at var55 92)))
(assert (= "B" (str.at var21 289)))
(assert (= """" (str.at var32 209)))
(assert (= "d" (str.at var10 679)))
(assert (= "A" (str.at var58 848)))
(assert (= """" (str.at var52 595)))
(assert (= "]" (str.at var4 604)))
(assert (= "i" (str.at var13 541)))
(assert (= "k" (str.at var23 480)))
(assert (= "&" (str.at var31 54)))
(assert (= "C" (str.at var8 262)))
(assert (= "/" (str.at var58 792)))
(assert (= "q" (str.at var44 735)))
(assert (= "n" (str.at var36 349)))
(assert (= ")" (str.at var58 31)))
(assert (= "\\" (str.at var7 677)))
(assert (= "i" (str.at var45 976)))
(assert (= "`" (str.at var2 62)))
(assert (= "&" (str.at var12 723)))
(assert (= "(" (str.at var3 757)))
(assert (= "o" (str.at var10 437)))
(assert (= "R" (str.at var20 892)))
(assert (= "*" (str.at var46 702)))
(assert (= "T" (str.at var16 536)))
(assert (= "&" (str.at var0 656)))
(assert (= "/" (str.at var51 345)))
(assert (= "w" (str.at var32 161)))
(assert (= "Y" (str.at var31 344)))
(assert (= "K" (str.at var47 674)))
(assert (= "h" (str.at var42 962)))
(assert (= "4" (str.at var42 988)))
(assert (= "B" (str.at var8 449)))
(assert (= "o" (str.at var58 442)))
(assert (= "s" (str.at var54 728)))
(assert (= "@" (str.at var36 244)))
(assert (= "(" (str.at var8 797)))
(assert (= "c" (str.at var31 21)))
(assert (= "|" (str.at var35 861)))
(assert (= "Y" (str.at var1 703)))
(assert (= "J" (str.at var60 847)))
(assert (= "O" (str.at var46 643)))
(assert (= "V" (str.at var17 393)))
(assert (= "^" (str.at var24 722)))
(assert (= "1" (str.at var30 925)))
(assert (= "|" (str.at var56 549)))
(assert (= """" (str.at var15 887)))
(assert (= "M" (str.at var16 983)))
(assert (= "i" (str.at var26 392)))
(assert (= "3" (str.at var57 559)))
(assert (= "i" (str.at var32 186)))
(assert (= "M" (str.at var58 238)))
(assert (= "n" (str.at var46 770)))
(assert (= "}" (str.at var11 258)))
(assert (= "{" (str.at var22 811)))
(assert (= "!" (str.at var24 8)))
(assert (= "W" (str.at var47 657)))
(assert (= "W" (str.at var0 768)))
(assert (= ":" (str.at var11 32)))
(assert (= "D" (str.at var6 287)))
(assert (= "P" (str.at var31 178)))
(assert (= "y" (str.at var51 194)))
(assert (= "/" (str.at var29 435)))
(assert (= "s" (str.at var53 824)))
(assert (= "=" (str.at var22 542)))
(assert (= "U" (str.at var20 390)))
(assert (= "`" (str.at var1 75)))
(assert (= "H" (str.at var60 480)))
(assert (= "y" (str.at var15 439)))
(assert (= "<" (str.at var13 53)))
(assert (= "H" (str.at var23 283)))
(assert (= "/" (str.at var13 802)))
(assert (= "X" (str.at var38 694)))
(assert (= "C" (str.at var29 661)))
(assert (= "0" (str.at var42 492)))
(assert (= "W" (str.at var26 701)))
(assert (= "c" (str.at var26 24)))
(assert (= "+" (str.at var19 557)))
(assert (= "6" (str.at var50 108)))
(assert (= "C" (str.at var59 633)))
(assert (= "v" (str.at var41 364)))
(assert (= ")" (str.at var10 210)))
(assert (= "5" (str.at var0 803)))
(assert (= "Q" (str.at var48 294)))
(assert (= "_" (str.at var18 502)))
(assert (= ")" (str.at var31 736)))
(assert (= "-" (str.at var43 379)))
(assert (= "9" (str.at var0 34)))
(assert (= "g" (str.at var28 569)))
(assert (= "G" (str.at var28 487)))
(assert (= "1" (str.at var31 653)))
(assert (= "Z" (str.at var16 735)))
(assert (= "U" (str.at var8 269)))
(assert (= "i" (str.at var60 79)))
(assert (= "=" (str.at var30 484)))
(assert (= "{" (str.at var12 740)))
(assert (= "f" (str.at var60 754)))
(assert (= "T" (str.at var23 588)))
(assert (= "Y" (str.at var28 88)))
(assert (= "P" (str.at var23 312)))
(assert (= "-" (str.at var1 892)))
(assert (= "#" (str.at var50 141)))
(assert (= "~" (str.at var1 317)))
(assert (= "-" (str.at var3 422)))
(assert (= "t" (str.at var19 772)))
(assert (= "!" (str.at var9 89)))
(assert (= "h" (str.at var26 875)))
(assert (= "t" (str.at var22 860)))
(assert (= "n" (str.at var22 122)))
(assert (= "a" (str.at var35 610)))
(assert (= "z" (str.at var48 458)))
(assert (= ":" (str.at var27 133)))
(assert (= "2" (str.at var10 51)))
(assert (= "%" (str.at var40 52)))
(assert (= ")" (str.at var28 993)))
(assert (= "E" (str.at var32 181)))
(assert (= "!" (str.at var24 122)))
(assert (= "#" (str.at var24 243)))
(assert (= "b" (str.at var57 231)))
(assert (= "d" (str.at var59 365)))
(assert (= "[" (str.at var59 557)))
(assert (= "9" (str.at var58 524)))
(assert (= "w" (str.at var58 817)))
(assert (= "d" (str.at var52 311)))
(assert (= "|" (str.at var37 559)))
(assert (= "s" (str.at var59 375)))
(assert (= """" (str.at var56 749)))
(assert (= "j" (str.at var50 388)))
(assert (= "u" (str.at var49 693)))
(assert (= "l" (str.at var48 521)))
(assert (= "G" (str.at var10 271)))
(assert (= "E" (str.at var53 509)))
(assert (= "<" (str.at var5 492)))
(assert (= "0" (str.at var34 739)))
(assert (= "s" (str.at var25 125)))
(assert (= "~" (str.at var50 343)))
(assert (= "E" (str.at var60 749)))
(assert (= "8" (str.at var16 698)))
(assert (= "A" (str.at var50 747)))
(assert (= "a" (str.at var35 182)))
(assert (= "h" (str.at var41 966)))
(assert (= "@" (str.at var30 108)))
(assert (= "c" (str.at var46 228)))
(assert (= "?" (str.at var38 644)))
(assert (= "5" (str.at var53 430)))
(assert (= "4" (str.at var9 804)))
(assert (= "_" (str.at var46 705)))
(assert (= "}" (str.at var30 855)))
(assert (= "E" (str.at var49 702)))
(assert (= "b" (str.at var11 241)))
(assert (= "F" (str.at var56 364)))
(assert (= "E" (str.at var18 550)))
(assert (= "." (str.at var11 711)))
(assert (= "I" (str.at var38 423)))
(assert (= "5" (str.at var32 848)))
(assert (= "5" (str.at var52 161)))
(assert (= ")" (str.at var13 634)))
(assert (= "x" (str.at var12 440)))
(assert (= "g" (str.at var39 146)))
(assert (= "," (str.at var21 863)))
(assert (= "?" (str.at var57 478)))
(assert (= "!" (str.at var32 223)))
(assert (= "G" (str.at var42 584)))
(assert (= "." (str.at var6 713)))
(assert (= "X" (str.at var55 918)))
(assert (= "D" (str.at var0 48)))
(assert (= "_" (str.at var6 550)))
(assert (= "&" (str.at var38 959)))
(assert (= "j" (str.at var51 494)))
(assert (= "<" (str.at var10 547)))
(assert (= "&" (str.at var23 248)))
(assert (= "<" (str.at var32 549)))
(assert (= "r" (str.at var17 775)))
(assert (= "P" (str.at var36 688)))
(assert (= "Z" (str.at var42 294)))
(assert (= "w" (str.at var5 977)))
(assert (= "J" (str.at var26 912)))
(assert (= "Y" (str.at var31 477)))
(assert (= ":" (str.at var60 758)))
(assert (= "P" (str.at var39 826)))
(assert (= "@" (str.at var34 564)))
(assert (= "`" (str.at var46 385)))
(assert (= "?" (str.at var10 929)))
(assert (= "o" (str.at var4 965)))
(assert (= "Q" (str.at var53 237)))
(assert (= "_" (str.at var11 833)))
(assert (= "q" (str.at var14 358)))
(assert (= "!" (str.at var59 390)))
(assert (= "v" (str.at var48 389)))
(assert (= "\\" (str.at var27 662)))
(assert (= "," (str.at var1 838)))
(assert (= "$" (str.at var9 542)))
(assert (= "[" (str.at var45 218)))
(assert (= "I" (str.at var51 736)))
(assert (= "+" (str.at var42 886)))
(assert (= "j" (str.at var44 869)))
(assert (= "S" (str.at var15 269)))
(assert (= "j" (str.at var58 909)))
(assert (= "?" (str.at var23 680)))
(assert (= "g" (str.at var49 254)))
(assert (= "I" (str.at var50 64)))
(assert (= "U" (str.at var34 500)))
(assert (= "G" (str.at var38 629)))
(assert (= "7" (str.at var58 220)))
(assert (= "&" (str.at var58 648)))
(assert (= "L" (str.at var53 793)))
(assert (= "," (str.at var17 637)))
(check-sat)